************************************************************************
file with basedata            : md341_.bas
initial value random generator: 1436002315
************************************************************************
projects                      :  1
jobs (incl. supersource/sink ):  22
horizon                       :  161
RESOURCES
  - renewable                 :  2   R
  - nonrenewable              :  2   N
  - doubly constrained        :  0   D
************************************************************************
PROJECT INFORMATION:
pronr.  #jobs rel.date duedate tardcost  MPM-Time
    1     20      0       29       17       29
************************************************************************
PRECEDENCE RELATIONS:
jobnr.    #modes  #successors   successors
   1        1          3           2   3   4
   2        3          1          17
   3        3          3           7   8  17
   4        3          2           5   7
   5        3          3           6   8  14
   6        3          3          15  16  19
   7        3          3           9  10  13
   8        3          1          15
   9        3          3          12  18  19
  10        3          1          11
  11        3          3          12  16  18
  12        3          1          20
  13        3          2          15  16
  14        3          2          17  20
  15        3          2          20  21
  16        3          1          21
  17        3          2          18  19
  18        3          1          21
  19        3          1          22
  20        3          1          22
  21        3          1          22
  22        1          0        
************************************************************************
REQUESTS/DURATIONS:
jobnr. mode duration  R 1  R 2  N 1  N 2
------------------------------------------------------------------------
  1      1     0       0    0    0    0
  2      1     4       8    6   10    0
         2     4       6    6    0    6
         3    10       4    6    9    0
  3      1     8       6    8    6    0
         2     8       7    6    5    0
         3     8       6    8    0    5
  4      1     3       5    7    0    7
         2     3       4    8    2    0
         3     9       1    5    2    0
  5      1     9      10    8    0    2
         2     9      10   10    1    0
         3     9      10    8    7    0
  6      1     4       8    7    7    0
         2     5       4    6    0    7
         3     7       2    3    5    0
  7      1     5       9    4    0    7
         2     7       9    3    0    4
         3     9       9    3    3    0
  8      1     5      10    6    0    4
         2     5       9    9    0    2
         3     6       5    6    7    0
  9      1     1      10   10    0    8
         2     6       9   10    0    7
         3    10       9   10    2    0
 10      1     7       3   10    0    9
         2     7       3   10    6    0
         3    10       3    9    0    8
 11      1     1       5    7    0    5
         2     2       4    4    7    0
         3     7       4    4    6    0
 12      1     6       7    7    9    0
         2     8       7    6    0    7
         3     9       4    6    9    0
 13      1     1       6    6    5    0
         2     3       4    6    5    0
         3     5       3    3    0    6
 14      1     3       9    8    9    0
         2     3       9    7    0    7
         3     6       9    5    9    0
 15      1     6       8    7    0    8
         2     9       7    5    0    5
         3     9       8    5    5    0
 16      1     1       6    9    0    7
         2     2       6    7    0    6
         3    10       5    6    0    5
 17      1     1       4    8    0    8
         2     1       4    8    5    0
         3     8       3    8    0    8
 18      1     2       8    8    8    0
         2     7       7    7    7    0
         3     9       5    7    0    7
 19      1     1       8    2    3    0
         2     6       5    2    3    0
         3     9       4    2    3    0
 20      1     2       5    7    0    4
         2     6       4    4    4    0
         3     6       4    3    0    2
 21      1     2       4    6    0    7
         2     3       4    6    0    3
         3     5       3    5    0    2
 22      1     0       0    0    0    0
************************************************************************
RESOURCEAVAILABILITIES:
  R 1  R 2  N 1  N 2
   19   20   80   93
************************************************************************
MAXIMAL LAGS:
from  to  type  delay
    1   22   ES      0
    1    2   ES      0
    2   22   ES      0
    1    3   ES      0
    3   22   ES      0
    1    4   ES      0
    4   22   ES      0
    1    5   ES      0
    5   22   ES      0
    1    6   ES      0
    6   22   ES      0
    1    7   ES      0
    7   22   ES      0
    1    8   ES      0
    8   22   ES      0
    1    9   ES      0
    9   22   ES      0
    1   10   ES      0
   10   22   ES      0
    1   11   ES      0
   11   22   ES      0
    1   12   ES      0
   12   22   ES      0
    1   13   ES      0
   13   22   ES      0
    1   14   ES      0
   14   22   ES      0
    1   15   ES      0
   15   22   ES      0
    1   16   ES      0
   16   22   ES      0
    1   17   ES      0
   17   22   ES      0
    1   18   ES      0
   18   22   ES      0
    1   19   ES      0
   19   22   ES      0
    1   20   ES      0
   20   22   ES      0
    1   21   ES      0
   21   22   ES      0
    1   22   ES      0
    2   17   SS     -7
    2   17   SE      9
    2   17   ES     11
    2   17   EE     11
    3    7   SS      8
    3    7   SE      4
    3    7   ES      3
    3    7   EE     -6
    3    8   SS     -6
    3    8   SE      6
    3    8   ES      3
    3    8   EE      4
    3   17   SS     -1
    3   17   SE     -1
    3   17   ES      7
    3   17   EE      5
    4    5   SS     -8
    4    5   SE    -10
    4    5   ES      2
    4    5   EE      1
    4    7   SS      8
    4    7   SE      0
    4    7   ES    -10
    4    7   EE      6
    5    6   SS    -10
    5    6   SE     -8
    5    6   ES      4
    5    6   EE     -3
    5    8   SS     -9
    5    8   SE     -9
    5    8   ES      3
    5    8   EE     -5
    5   14   SS    -11
    5   14   SE      7
    5   14   ES      5
    5   14   EE     -2
    6   15   SS    -12
    6   15   SE     -5
    6   15   ES     -3
    6   15   EE     -4
    6   16   SS      0
    6   16   SE     10
    6   16   ES     -1
    6   16   EE    -10
    6   19   SS     -7
    6   19   SE     -3
    6   19   ES    -10
    6   19   EE      5
    7    9   SS      6
    7    9   SE     -5
    7    9   ES      4
    7    9   EE      7
    7   10   SS      4
    7   10   SE     -3
   10    7   SE      0
    7   10   ES      0
    7   10   EE      7
    7   13   SS    -11
    7   13   SE      5
    7   13   ES     10
    7   13   EE     -9
    8   15   SS      6
    8   15   SE      3
    8   15   ES     -4
    8   15   EE      8
    9   12   SS    -12
    9   12   SE    -11
    9   12   ES     -2
    9   12   EE      1
    9   18   SS     -4
    9   18   SE     -6
    9   18   ES     -2
    9   18   EE     12
    9   19   SS    -11
    9   19   SE     -8
    9   19   ES     -6
    9   19   EE      5
   10   11   SS     11
   10   11   SE     -2
   10   11   ES     12
   10   11   EE      9
   11   12   SS    -11
   11   12   SE     -5
   11   12   ES      3
   11   12   EE    -10
   11   16   SS      6
   11   16   SE      7
   11   16   ES     10
   11   16   EE     12
   11   18   SS    -11
   11   18   SE     -1
   11   18   ES    -10
   11   18   EE      1
   12   20   SS      7
   12   20   SE     11
   12   20   ES      7
   12   20   EE    -10
   13   15   SS      5
   13   15   SE      3
   13   15   ES     -8
   13   15   EE     -4
   13   16   SS     11
   13   16   SE    -11
   13   16   ES     -9
   13   16   EE    -11
   14   17   SS      3
   14   17   SE      4
   14   17   ES     -5
   14   17   EE      8
   14   20   SS     -1
   14   20   SE      1
   14   20   ES      3
   14   20   EE     -3
   15   20   SS     -5
   15   20   SE    -12
   15   20   ES    -11
   15   20   EE    -12
   15   21   SS     12
   15   21   SE     -6
   15   21   ES      5
   15   21   EE      7
   16   21   SS      0
   16   21   SE      9
   16   21   ES      9
   16   21   EE     11
   17   18   SS    -12
   17   18   SE      5
   17   18   ES      3
   17   18   EE    -11
   17   19   SS      0
   17   19   SE     12
   17   19   ES      0
   17   19   EE     10
   18   21   SS     -8
   18   21   SE      1
   18   21   ES     10
   18   21   EE      1
************************************************************************
